Minimize
  5 x_gas_lawn_mower + 2 x_heavy_duty_yard_machine
Subject To
  c1: 2 x_gas_lawn_mower + 3 x_heavy_duty_yard_machine <= 450
  c2: 12 x_heavy_duty_yard_machine + 10 x_gas_lawn_mower <= 2000
  c3: x_heavy_duty_yard_machine + x_gas_lawn_mower <= 2500
End